************************************************************************
file with basedata            : md336_.bas
initial value random generator: 1100738991
************************************************************************
projects                      :  1
jobs (incl. supersource/sink ):  22
horizon                       :  159
RESOURCES
  - renewable                 :  2   R
  - nonrenewable              :  2   N
  - doubly constrained        :  0   D
************************************************************************
PROJECT INFORMATION:
pronr.  #jobs rel.date duedate tardcost  MPM-Time
    1     20      0       25       18       25
************************************************************************
PRECEDENCE RELATIONS:
jobnr.    #modes  #successors   successors
   1        1          3           2   3   4
   2        3          3           5   7  10
   3        3          3           8  16  19
   4        3          1          18
   5        3          3           6  12  14
   6        3          1          11
   7        3          1          17
   8        3          2           9  13
   9        3          3          11  14  15
  10        3          3          11  12  14
  11        3          2          17  21
  12        3          3          15  16  19
  13        3          1          15
  14        3          2          20  21
  15        3          2          17  18
  16        3          2          18  20
  17        3          1          20
  18        3          1          21
  19        3          1          22
  20        3          1          22
  21        3          1          22
  22        1          0        
************************************************************************
REQUESTS/DURATIONS:
jobnr. mode duration  R 1  R 2  N 1  N 2
------------------------------------------------------------------------
  1      1     0       0    0    0    0
  2      1     2       8    9    0    5
         2     4       7    8    0    5
         3     5       6    4    0    3
  3      1     1       8    6    9    0
         2     3       7    6    6    0
         3     7       5    5    0    5
  4      1     4       5    2    0    4
         2     8       3    2    2    0
         3     9       2    2    0    2
  5      1     1       6    6   10    0
         2     3       6    6    8    0
         3     5       5    3    0    7
  6      1     3       3    8    0    8
         2     4       2    7    0    6
         3    10       1    4    0    4
  7      1     4       7    9    6    0
         2     5       5    7    5    0
         3     8       5    3    4    0
  8      1     2       5    7    0    6
         2     5       3    7    0    2
         3    10       2    7    4    0
  9      1     1       2    7    0   10
         2     9       2    7    0    4
         3     9       2    7    8    0
 10      1     7      10    5   10    0
         2     7       8    6   10    0
         3     8       6    2   10    0
 11      1     5       3    8    7    0
         2     6       2    7    0    7
         3     7       2    6    0    2
 12      1     1       8    6    6    0
         2     4       8    3    0    3
         3     7       7    3    6    0
 13      1     1      10    8    0    2
         2     3       8    8    4    0
         3    10       7    6    3    0
 14      1     2       5    9   10    0
         2     3       5    9    0    5
         3     8       4    9    3    0
 15      1     1       5    7    0    7
         2     1       6    7    0    4
         3     8       1    6    0    4
 16      1     8       8    5    0    7
         2     9       4    4    7    0
         3     9       3    5    7    0
 17      1     2       6    8   10    0
         2     3       5    4    0    5
         3     7       2    3    0    3
 18      1     1       7    8    0    4
         2     3       6    6    6    0
         3     5       4    4    0    4
 19      1     7       8    4    0    6
         2     8       7    3    0    5
         3    10       4    1    0    3
 20      1     1       6    3    4    0
         2     7       5    2    1    0
         3     9       4    2    0    5
 21      1     6       7    9    0    9
         2     7       7    8    0    8
         3     8       5    7    0    5
 22      1     0       0    0    0    0
************************************************************************
RESOURCEAVAILABILITIES:
  R 1  R 2  N 1  N 2
   37   40   59   62
************************************************************************
MAXIMAL LAGS:
from  to  type  delay
    1   22   ES      0
    1    2   ES      0
    2   22   ES      0
    1    3   ES      0
    3   22   ES      0
    1    4   ES      0
    4   22   ES      0
    1    5   ES      0
    5   22   ES      0
    1    6   ES      0
    6   22   ES      0
    1    7   ES      0
    7   22   ES      0
    1    8   ES      0
    8   22   ES      0
    1    9   ES      0
    9   22   ES      0
    1   10   ES      0
   10   22   ES      0
    1   11   ES      0
   11   22   ES      0
    1   12   ES      0
   12   22   ES      0
    1   13   ES      0
   13   22   ES      0
    1   14   ES      0
   14   22   ES      0
    1   15   ES      0
   15   22   ES      0
    1   16   ES      0
   16   22   ES      0
    1   17   ES      0
   17   22   ES      0
    1   18   ES      0
   18   22   ES      0
    1   19   ES      0
   19   22   ES      0
    1   20   ES      0
   20   22   ES      0
    1   21   ES      0
   21   22   ES      0
    1   22   ES      0
    2    5   SS      5
    2    5   SE     10
    2    5   ES    -10
    2    5   EE      5
    2    7   SS     10
    2    7   SE     12
    2    7   ES     -6
    2    7   EE     -8
    2   10   SS     -2
    2   10   SE     -5
    2   10   ES      5
    2   10   EE     -9
    3    8   SS      8
    3    8   SE      3
    3    8   ES     11
    3    8   EE     12
    3   16   SS      6
    3   16   SE     10
    3   16   ES     -6
    3   16   EE     12
    3   19   SS     11
    3   19   SE     12
    3   19   ES     -5
    3   19   EE     -2
    4   18   SS     -1
    4   18   SE     -4
    4   18   ES      4
    4   18   EE      9
    5    6   SS      1
    5    6   SE     -4
    5    6   ES    -11
    5    6   EE    -10
    5   12   SS     -1
    5   12   SE     -1
    5   12   ES      2
    5   12   EE      3
    5   14   SS      4
    5   14   SE      4
    5   14   ES     -9
    5   14   EE      3
    6   11   SS     10
    6   11   SE      5
    6   11   ES      9
    6   11   EE      5
    7   17   SS     -3
    7   17   SE      2
    7   17   ES      7
    7   17   EE     -1
    8    9   SS      9
    8    9   SE     10
    8    9   ES    -10
    8    9   EE     -6
    8   13   SS      2
    8   13   SE    -10
    8   13   ES    -10
    8   13   EE      0
    9   11   SS     -7
    9   11   SE     -3
    9   11   ES    -10
    9   11   EE     -9
    9   14   SS     -7
    9   14   SE     -4
    9   14   ES     -9
    9   14   EE     10
    9   15   SS     -8
    9   15   SE      3
    9   15   ES     -8
    9   15   EE     -6
   10   11   SS      4
   10   11   SE      8
   10   11   ES    -12
   10   11   EE     -3
   10   12   SS      1
   10   12   SE      9
   10   12   ES      5
   10   12   EE     -8
   10   14   SS      3
   10   14   SE     -1
   10   14   ES      1
   10   14   EE      2
   11   17   SS     11
   11   17   SE      8
   11   17   ES    -12
   11   17   EE     -3
   11   21   SS     -6
   11   21   SE    -10
   11   21   ES    -12
   11   21   EE     -5
   12   15   SS      4
   12   15   SE      8
   12   15   ES     -2
   12   15   EE      1
   12   16   SS      6
   12   16   SE     -2
   12   16   ES      8
   12   16   EE      8
   12   19   SS     -2
   12   19   SE      3
   12   19   ES      6
   12   19   EE      9
   13   15   SS     10
   13   15   SE      4
   13   15   ES      5
   13   15   EE      2
   14   20   SS      2
   14   20   SE     -3
   14   20   ES      6
   14   20   EE     -8
   14   21   SS     -3
   14   21   SE     -7
   14   21   ES     -4
   14   21   EE     -5
   15   17   SS      3
   15   17   SE     -1
   15   17   ES     -3
   15   17   EE     12
   15   18   SS    -11
   15   18   SE     -8
   15   18   ES     -1
   15   18   EE     -3
   16   18   SS      2
   16   18   SE     -7
   16   18   ES      7
   16   18   EE     -7
   16   20   SS     10
   16   20   SE      5
   16   20   ES     -3
   16   20   EE     -7
   17   20   SS     -7
   17   20   SE     10
   17   20   ES     10
   17   20   EE      9
   18   21   SS     -8
   18   21   SE     -7
   18   21   ES     -5
   18   21   EE     -9
************************************************************************
